data/solutions/planning/wellformed/moderate/sequential/wellformed_moderate_instance44_cplex.sol
Elapsed time: 0.16
Nodes explored: -
Nodes left: -
Relative gap: -
Upper bound: 17340.0
Lower bound: -
C[0]=1156.0
C[1]=1156.0
C[2]=1156.0
C[3]=1156.0
y[0]=0
y[1]=0
y[2]=2
y[3]=0
y[4]=0
y[5]=0
y[6]=0
y[7]=2
y[8]=3
y[9]=2
y[10]=1
y[11]=0
y[12]=1
y[13]=3
y[14]=0
y[15]=1
y[16]=0
y[17]=0
y[18]=1
y[19]=1
y[20]=3
y[21]=3
y[22]=2
y[23]=3
y[24]=2
y[25]=1
y[26]=3
y[27]=3
y[28]=1
y[29]=1
y[30]=1
y[31]=1
y[32]=3
y[33]=2
y[34]=3
y[35]=2
y[36]=0
y[37]=3
y[38]=3
y[39]=2
y[40]=2
y[41]=1
y[42]=3
y[43]=3
y[44]=2
y[45]=1
y[46]=3
y[47]=2
y[48]=2
y[49]=0
